c nIsolatedPIs 0
c maxPI 32
p cnf 166 403
c gate 33 4 20 0
4 -33 0
20 -33 0
-4 -20 33 0
c gate 34 -4 -20 0
-4 -34 0
-20 -34 0
4 20 34 0
c gate 35 -33 -34 0
-33 -35 0
-34 -35 0
33 34 35 0
c gate 36 2 18 0
2 -36 0
18 -36 0
-2 -18 36 0
c gate 37 -2 -18 0
-2 -37 0
-18 -37 0
2 18 37 0
c gate 38 1 17 0
1 -38 0
17 -38 0
-1 -17 38 0
c gate 39 -36 38 0
-36 -39 0
38 -39 0
36 -38 39 0
c gate 40 -37 39 0
-37 -40 0
39 -40 0
37 -39 40 0
c gate 41 -36 -40 0
-36 -41 0
-40 -41 0
36 40 41 0
c gate 42 3 19 0
3 -42 0
19 -42 0
-3 -19 42 0
c gate 43 -3 -19 0
-3 -43 0
-19 -43 0
3 19 43 0
c gate 44 -42 -43 0
-42 -44 0
-43 -44 0
42 43 44 0
c gate 45 -41 44 0
-41 -45 0
44 -45 0
41 -44 45 0
c gate 46 35 45 0
35 -46 0
45 -46 0
-35 -45 46 0
c gate 47 -38 -45 0
-38 -47 0
-45 -47 0
38 45 47 0
c gate 48 -46 -47 0
-46 -48 0
-47 -48 0
46 47 48 0
c gate 49 -42 -45 0
-42 -49 0
-45 -49 0
42 45 49 0
c gate 50 35 -49 0
35 -50 0
-49 -50 0
-35 49 50 0
c gate 51 -33 -50 0
-33 -51 0
-50 -51 0
33 50 51 0
c gate 52 5 21 0
5 -52 0
21 -52 0
-5 -21 52 0
c gate 53 -5 -21 0
-5 -53 0
-21 -53 0
5 21 53 0
c gate 54 -52 -53 0
-52 -54 0
-53 -54 0
52 53 54 0
c gate 55 -51 54 0
-51 -55 0
54 -55 0
51 -54 55 0
c gate 56 -50 -55 0
-50 -56 0
-55 -56 0
50 55 56 0
c gate 57 -48 56 0
-48 -57 0
56 -57 0
48 -56 57 0
c gate 58 15 31 0
15 -58 0
31 -58 0
-15 -31 58 0
c gate 59 -15 -31 0
-15 -59 0
-31 -59 0
15 31 59 0
c gate 60 -58 -59 0
-58 -60 0
-59 -60 0
58 59 60 0
c gate 61 14 30 0
14 -61 0
30 -61 0
-14 -30 61 0
c gate 62 -14 -30 0
-14 -62 0
-30 -62 0
14 30 62 0
c gate 63 -61 -62 0
-61 -63 0
-62 -63 0
61 62 63 0
c gate 64 13 29 0
13 -64 0
29 -64 0
-13 -29 64 0
c gate 65 -13 -29 0
-13 -65 0
-29 -65 0
13 29 65 0
c gate 66 -64 -65 0
-64 -66 0
-65 -66 0
64 65 66 0
c gate 67 -12 -28 0
-12 -67 0
-28 -67 0
12 28 67 0
c gate 68 12 28 0
12 -68 0
28 -68 0
-12 -28 68 0
c gate 69 11 27 0
11 -69 0
27 -69 0
-11 -27 69 0
c gate 70 -68 -69 0
-68 -70 0
-69 -70 0
68 69 70 0
c gate 71 9 25 0
9 -71 0
25 -71 0
-9 -25 71 0
c gate 72 10 26 0
10 -72 0
26 -72 0
-10 -26 72 0
c gate 73 -71 -72 0
-71 -73 0
-72 -73 0
71 72 73 0
c gate 74 70 73 0
70 -74 0
73 -74 0
-70 -73 74 0
c gate 75 -67 -74 0
-67 -75 0
-74 -75 0
67 74 75 0
c gate 76 66 75 0
66 -76 0
75 -76 0
-66 -75 76 0
c gate 77 -64 -76 0
-64 -77 0
-76 -77 0
64 76 77 0
c gate 78 63 -77 0
63 -78 0
-77 -78 0
-63 77 78 0
c gate 79 -61 -78 0
-61 -79 0
-78 -79 0
61 78 79 0
c gate 80 60 -79 0
60 -80 0
-79 -80 0
-60 79 80 0
c gate 81 -58 -80 0
-58 -81 0
-80 -81 0
58 80 81 0
c gate 82 16 -32 0
16 -82 0
-32 -82 0
-16 32 82 0
c gate 83 -16 32 0
-16 -83 0
32 -83 0
16 -32 83 0
c gate 84 -82 -83 0
-82 -84 0
-83 -84 0
82 83 84 0
c gate 85 81 -84 0
81 -85 0
-84 -85 0
-81 84 85 0
c gate 86 -81 84 0
-81 -86 0
84 -86 0
81 -84 86 0
c gate 87 -85 -86 0
-85 -87 0
-86 -87 0
85 86 87 0
c gate 88 -67 -70 0
-67 -88 0
-70 -88 0
67 70 88 0
c gate 89 -10 -26 0
-10 -89 0
-26 -89 0
10 26 89 0
c gate 90 -73 -89 0
-73 -90 0
-89 -90 0
73 89 90 0
c gate 91 8 24 0
8 -91 0
24 -91 0
-8 -24 91 0
c gate 92 -6 -22 0
-6 -92 0
-22 -92 0
6 22 92 0
c gate 93 52 -92 0
52 -93 0
-92 -93 0
-52 92 93 0
c gate 94 7 23 0
7 -94 0
23 -94 0
-7 -23 94 0
c gate 95 6 22 0
6 -95 0
22 -95 0
-6 -22 95 0
c gate 96 -94 -95 0
-94 -96 0
-95 -96 0
94 95 96 0
c gate 97 -93 96 0
-93 -97 0
96 -97 0
93 -96 97 0
c gate 98 -8 -24 0
-8 -98 0
-24 -98 0
8 24 98 0
c gate 99 -7 -23 0
-7 -99 0
-23 -99 0
7 23 99 0
c gate 100 -91 -99 0
-91 -100 0
-99 -100 0
91 99 100 0
c gate 101 -98 100 0
-98 -101 0
100 -101 0
98 -100 101 0
c gate 102 -97 101 0
-97 -102 0
101 -102 0
97 -101 102 0
c gate 103 -91 -102 0
-91 -103 0
-102 -103 0
91 102 103 0
c gate 104 -92 97 0
-92 -104 0
97 -104 0
92 -97 104 0
c gate 105 101 104 0
101 -105 0
104 -105 0
-101 -104 105 0
c gate 106 55 105 0
55 -106 0
105 -106 0
-55 -105 106 0
c gate 107 103 -106 0
103 -107 0
-106 -107 0
-103 106 107 0
c gate 108 -9 -25 0
-9 -108 0
-25 -108 0
9 25 108 0
c gate 109 -89 -108 0
-89 -109 0
-108 -109 0
89 108 109 0
c gate 110 73 109 0
73 -110 0
109 -110 0
-73 -109 110 0
c gate 111 -107 110 0
-107 -111 0
110 -111 0
107 -110 111 0
c gate 112 -90 -111 0
-90 -112 0
-111 -112 0
90 111 112 0
c gate 113 -11 -27 0
-11 -113 0
-27 -113 0
11 27 113 0
c gate 114 -67 -113 0
-67 -114 0
-113 -114 0
67 113 114 0
c gate 115 70 114 0
70 -115 0
114 -115 0
-70 -114 115 0
c gate 116 -112 115 0
-112 -116 0
115 -116 0
112 -115 116 0
c gate 117 -88 -116 0
-88 -117 0
-116 -117 0
88 116 117 0
c gate 118 66 -117 0
66 -118 0
-117 -118 0
-66 117 118 0
c gate 119 -64 -118 0
-64 -119 0
-118 -119 0
64 118 119 0
c gate 120 63 -119 0
63 -120 0
-119 -120 0
-63 119 120 0
c gate 121 -61 -120 0
-61 -121 0
-120 -121 0
61 120 121 0
c gate 122 60 -121 0
60 -122 0
-121 -122 0
-60 121 122 0
c gate 123 -58 -122 0
-58 -123 0
-122 -123 0
58 122 123 0
c gate 124 84 -123 0
84 -124 0
-123 -124 0
-84 123 124 0
c gate 125 -84 123 0
-84 -125 0
123 -125 0
84 -123 125 0
c gate 126 -124 -125 0
-124 -126 0
-125 -126 0
124 125 126 0
c gate 127 87 -126 0
87 -127 0
-126 -127 0
-87 126 127 0
c gate 128 -60 79 0
-60 -128 0
79 -128 0
60 -79 128 0
c gate 129 -80 -128 0
-80 -129 0
-128 -129 0
80 128 129 0
c gate 130 -66 -75 0
-66 -130 0
-75 -130 0
66 75 130 0
c gate 131 -76 -130 0
-76 -131 0
-130 -131 0
76 130 131 0
c gate 132 -66 117 0
-66 -132 0
117 -132 0
66 -117 132 0
c gate 133 -118 -132 0
-118 -133 0
-132 -133 0
118 132 133 0
c gate 134 -131 133 0
-131 -134 0
133 -134 0
131 -133 134 0
c gate 135 -63 77 0
-63 -135 0
77 -135 0
63 -77 135 0
c gate 136 -78 -135 0
-78 -136 0
-135 -136 0
78 135 136 0
c gate 137 134 -136 0
134 -137 0
-136 -137 0
-134 136 137 0
c gate 138 -134 136 0
-134 -138 0
136 -138 0
134 -136 138 0
c gate 139 -63 119 0
-63 -139 0
119 -139 0
63 -119 139 0
c gate 140 -120 -139 0
-120 -140 0
-139 -140 0
120 139 140 0
c gate 141 -138 140 0
-138 -141 0
140 -141 0
138 -140 141 0
c gate 142 -137 -141 0
-137 -142 0
-141 -142 0
137 141 142 0
c gate 143 -129 -142 0
-129 -143 0
-142 -143 0
129 142 143 0
c gate 144 129 142 0
129 -144 0
142 -144 0
-129 -142 144 0
c gate 145 -60 121 0
-60 -145 0
121 -145 0
60 -121 145 0
c gate 146 -122 -145 0
-122 -146 0
-145 -146 0
122 145 146 0
c gate 147 -144 146 0
-144 -147 0
146 -147 0
144 -146 147 0
c gate 148 -143 -147 0
-143 -148 0
-147 -148 0
143 147 148 0
c gate 149 -127 148 0
-127 -149 0
148 -149 0
127 -148 149 0
c gate 150 131 -133 0
131 -150 0
-133 -150 0
-131 133 150 0
c gate 151 -134 -150 0
-134 -151 0
-150 -151 0
134 150 151 0
c gate 152 -87 126 0
-87 -152 0
126 -152 0
87 -126 152 0
c gate 153 -151 -152 0
-151 -153 0
-152 -153 0
151 152 153 0
c gate 154 -149 153 0
-149 -154 0
153 -154 0
149 -153 154 0
c gate 155 -57 151 0
-57 -155 0
151 -155 0
57 -151 155 0
c gate 156 60 63 0
60 -156 0
63 -156 0
-60 -63 156 0
c gate 157 -84 156 0
-84 -157 0
156 -157 0
84 -156 157 0
c gate 158 66 115 0
66 -158 0
115 -158 0
-66 -115 158 0
c gate 159 157 158 0
157 -159 0
158 -159 0
-157 -158 159 0
c gate 160 111 159 0
111 -160 0
159 -160 0
-111 -159 160 0
c gate 161 -155 -160 0
-155 -161 0
-160 -161 0
155 160 161 0
c gate 162 -154 161 0
-154 -162 0
161 -162 0
154 -161 162 0
c gate 163 76 157 0
76 -163 0
157 -163 0
-76 -157 163 0
c gate 164 117 163 0
117 -164 0
163 -164 0
-117 -163 164 0
c gate 165 -162 -164 0
-162 -165 0
-164 -165 0
162 164 165 0
c gate 166 -57 -165 0
-57 -166 0
-165 -166 0
57 165 166 0
c PO
166 0
